W=5;
H=4;

MAX_TIME=18;
MAX_TRACKS=9;

TARGET=(2,5);

TRAINS=[(2,1,RIGHT)];
DECOYS=[];

INIT_POS=[
(2,1,STRAIGHT_RL),
(2,2,DSWITCH_T_D_L),
(2,3,ROCK),
(2,4,DSWITCH_D_T_R),
(2,5,STRAIGHT_RL),
(4,2,CORNER_TL),
(4,4,CORNER_TL),
];
TUNNEL_PAIRS=[];

GATES=[];
ACTIVATIONS=[
(4,2,1),
];

DSWITCHES=[
(2,2,1),
(2,4,1),
];
STATIONS=[];

SEMAPHORE_SUPPLY=0;
